;; sequence(s): A116176
;; terms: 0 18 486 8748 131220 1771470 22320522 267846264 3099363912 34867844010 383546284110 4142299868388 44059007691036 462619580755878 4804126415541810 49413871702715760 504021491367700752
;; small program: (1 + x) * loop((x + x) + x, x + x, x)
;; fast program: (1 + x) * loop2(x * y, y, x, x, 1 + (2 * (2 + 2)))
(set-logic UFNIA)
(declare-fun f0 (Int) Int)
(declare-fun g0 (Int) Int)
(declare-fun h0 (Int) Int)
(declare-fun u0 (Int Int) Int)
(declare-fun v0 (Int) Int)
(declare-fun small (Int) Int)
(declare-fun f1 (Int Int) Int)
(declare-fun g1 (Int Int) Int)
(declare-fun h1 (Int) Int)
(declare-fun i1 (Int) Int)
(declare-fun j1 () Int)
(declare-fun u1 (Int Int Int) Int)
(declare-fun v1 (Int Int Int) Int)
(declare-fun w1 (Int) Int)
(declare-fun fast (Int) Int)
(assert (forall ((x Int)) (= (f0 x) (+ (+ x x) x))))
(assert (forall ((x Int)) (= (g0 x) (+ x x))))
(assert (forall ((x Int)) (= (h0 x) x)))
(assert (forall ((x Int) (y Int)) (= (u0 x y) (ite (<= x 0) y (f0 (u0 (- x 1) y))))))
(assert (forall ((x Int)) (= (v0 x) (u0 (g0 x) (h0 x)))))
(assert (forall ((x Int)) (= (small x) (* (+ 1 x) (v0 x)))))
(assert (forall ((x Int) (y Int)) (= (f1 x y) (* x y))))
(assert (forall ((x Int) (y Int)) (= (g1 x y) y)))
(assert (forall ((x Int)) (= (h1 x) x)))
(assert (forall ((x Int)) (= (i1 x) x)))
(assert (= j1 (+ 1 (* 2 (+ 2 2)))))
(assert (forall ((x Int) (y Int) (z Int)) (= (u1 x y z) (ite (<= x 0) y (f1 (u1 (- x 1) y z) (v1 (- x 1) y z))))))
(assert (forall ((x Int) (y Int) (z Int)) (= (v1 x y z) (ite (<= x 0) z (g1 (u1 (- x 1) y z) (v1 (- x 1) y z))))))
(assert (forall ((x Int)) (= (w1 x) (u1 (h1 x) (i1 x) j1))))
(assert (forall ((x Int)) (= (fast x) (* (+ 1 x) (w1 x)))))
(assert (exists ((c Int)) (and (>= c 0) (not (= (small c) (fast c))))))
(check-sat)
